0, 3, 2
0, 3, 2
0, 3, 7
2, 6, 2
5, 3, 7
0, 9, 5
0, 4, 1
3, 7, 4
0, 9, 6
0, 5, 1
0, 5, 7
5, 9, 7
0, 10, 3
0, 8, 4
0, 4, 9
0, 3, 2
0, 3, 5
0, 9, 10
0, 7, 10
4, 6, 5
2, 2, 5
1, 9, 2
4, 3, 5
0, 2, 9
0, 8, 5
0, 10, 3
0, 8, 6
